NAME : amz0148.155360_114860.tour
COMMENT : Cost = 155360_114860
COMMENT : Found by LKH-AMZ [Keld Helsgaun] Sun May 11 14:25:58 2025
COMMENT : TW viol.: 0 #: 0
TYPE : TOUR
DIMENSION : 113
TOUR_SECTION
28
39
27
33
92
50
12
66
57
113
53
10
59
8
73
47
75
25
78
67
97
76
112
58
80
35
16
65
91
45
108
72
52
34
2
32
46
102
98
103
77
69
5
62
14
38
30
79
105
22
20
21
26
13
6
89
93
68
31
3
71
101
61
88
4
24
54
42
60
87
110
84
96
111
85
1
29
83
90
49
36
17
11
56
104
48
99
70
81
63
7
100
82
109
107
15
64
106
43
94
18
55
86
44
51
40
37
9
74
95
19
23
41
-1
EOF
